c colouring generated by benchmark framework
p edge 743 52439
v 1 22
v 2 6
v 3 17
v 4 21
v 5 5
v 6 26
v 7 15
v 8 27
v 9 25
v 10 18
v 11 3
v 12 4
v 13 28
v 14 6
v 15 20
v 16 4
v 17 8
v 18 8
v 19 12
v 20 20
v 21 27
v 22 30
v 23 27
v 24 13
v 25 30
v 26 22
v 27 24
v 28 25
v 29 16
v 30 23
v 31 2
v 32 25
v 33 24
v 34 29
v 35 19
v 36 22
v 37 19
v 38 2
v 39 20
v 40 11
v 41 23
v 42 27
v 43 28
v 44 24
v 45 0
v 46 4
v 47 20
v 48 21
v 49 13
v 50 28
v 51 21
v 52 24
v 53 7
v 54 23
v 55 5
v 56 26
v 57 28
v 58 18
v 59 13
v 60 1
v 61 10
v 62 30
v 63 16
v 64 8
v 65 15
v 66 8
v 67 29
v 68 28
v 69 11
v 70 6
v 71 9
v 72 19
v 73 20
v 74 14
v 75 5
v 76 29
v 77 29
v 78 26
v 79 9
v 80 18
v 81 20
v 82 27
v 83 15
v 84 12
v 85 0
v 86 7
v 87 23
v 88 9
v 89 12
v 90 22
v 91 15
v 92 27
v 93 27
v 94 15
v 95 30
v 96 15
v 97 14
v 98 16
v 99 22
v 100 26
v 101 17
v 102 14
v 103 4
v 104 14
v 105 24
v 106 7
v 107 16
v 108 8
v 109 19
v 110 27
v 111 28
v 112 8
v 113 2
v 114 22
v 115 12
v 116 17
v 117 5
v 118 28
v 119 24
v 120 7
v 121 3
v 122 25
v 123 23
v 124 13
v 125 1
v 126 11
v 127 4
v 128 8
v 129 8
v 130 19
v 131 28
v 132 8
v 133 23
v 134 10
v 135 6
v 136 10
v 137 10
v 138 7
v 139 28
v 140 21
v 141 25
v 142 6
v 143 18
v 144 15
v 145 3
v 146 25
v 147 28
v 148 4
v 149 24
v 150 14
v 151 0
v 152 19
v 153 17
v 154 6
v 155 1
v 156 20
v 157 24
v 158 16
v 159 1
v 160 6
v 161 16
v 162 25
v 163 7
v 164 13
v 165 23
v 166 17
v 167 13
v 168 30
v 169 28
v 170 5
v 171 2
v 172 14
v 173 30
v 174 15
v 175 0
v 176 27
v 177 21
v 178 9
v 179 16
v 180 25
v 181 20
v 182 0
v 183 22
v 184 9
v 185 8
v 186 24
v 187 2
v 188 7
v 189 18
v 190 8
v 191 30
v 192 17
v 193 30
v 194 24
v 195 5
v 196 17
v 197 22
v 198 17
v 199 14
v 200 18
v 201 7
v 202 9
v 203 30
v 204 14
v 205 13
v 206 2
v 207 19
v 208 24
v 209 15
v 210 23
v 211 29
v 212 20
v 213 18
v 214 13
v 215 15
v 216 16
v 217 4
v 218 8
v 219 11
v 220 19
v 221 19
v 222 14
v 223 0
v 224 25
v 225 12
v 226 4
v 227 20
v 228 18
v 229 9
v 230 26
v 231 16
v 232 18
v 233 17
v 234 26
v 235 28
v 236 29
v 237 10
v 238 6
v 239 9
v 240 4
v 241 27
v 242 19
v 243 8
v 244 26
v 245 18
v 246 2
v 247 19
v 248 5
v 249 17
v 250 1
v 251 7
v 252 8
v 253 12
v 254 3
v 255 7
v 256 24
v 257 20
v 258 11
v 259 8
v 260 10
v 261 19
v 262 9
v 263 9
v 264 24
v 265 8
v 266 5
v 267 14
v 268 21
v 269 8
v 270 24
v 271 6
v 272 4
v 273 5
v 274 11
v 275 29
v 276 13
v 277 30
v 278 25
v 279 13
v 280 13
v 281 4
v 282 9
v 283 19
v 284 0
v 285 23
v 286 29
v 287 5
v 288 21
v 289 22
v 290 12
v 291 5
v 292 27
v 293 22
v 294 3
v 295 28
v 296 12
v 297 30
v 298 23
v 299 2
v 300 29
v 301 8
v 302 18
v 303 2
v 304 17
v 305 6
v 306 18
v 307 11
v 308 22
v 309 0
v 310 15
v 311 4
v 312 9
v 313 7
v 314 3
v 315 6
v 316 29
v 317 26
v 318 0
v 319 4
v 320 3
v 321 28
v 322 22
v 323 19
v 324 30
v 325 10
v 326 3
v 327 30
v 328 22
v 329 7
v 330 19
v 331 18
v 332 25
v 333 16
v 334 2
v 335 6
v 336 3
v 337 16
v 338 30
v 339 23
v 340 25
v 341 26
v 342 13
v 343 21
v 344 8
v 345 12
v 346 21
v 347 14
v 348 6
v 349 14
v 350 7
v 351 30
v 352 1
v 353 16
v 354 3
v 355 7
v 356 12
v 357 28
v 358 15
v 359 19
v 360 23
v 361 26
v 362 3
v 363 20
v 364 21
v 365 19
v 366 4
v 367 21
v 368 2
v 369 19
v 370 15
v 371 22
v 372 28
v 373 28
v 374 18
v 375 18
v 376 22
v 377 30
v 378 23
v 379 11
v 380 17
v 381 17
v 382 19
v 383 25
v 384 9
v 385 7
v 386 18
v 387 23
v 388 1
v 389 28
v 390 20
v 391 10
v 392 12
v 393 4
v 394 12
v 395 22
v 396 10
v 397 2
v 398 25
v 399 7
v 400 18
v 401 26
v 402 6
v 403 23
v 404 0
v 405 4
v 406 11
v 407 0
v 408 27
v 409 29
v 410 29
v 411 26
v 412 14
v 413 25
v 414 27
v 415 0
v 416 27
v 417 15
v 418 28
v 419 10
v 420 24
v 421 16
v 422 7
v 423 25
v 424 3
v 425 15
v 426 11
v 427 21
v 428 11
v 429 18
v 430 3
v 431 22
v 432 17
v 433 20
v 434 28
v 435 20
v 436 22
v 437 29
v 438 20
v 439 14
v 440 29
v 441 1
v 442 20
v 443 30
v 444 7
v 445 8
v 446 13
v 447 13
v 448 15
v 449 10
v 450 1
v 451 21
v 452 18
v 453 28
v 454 12
v 455 4
v 456 0
v 457 4
v 458 12
v 459 23
v 460 0
v 461 15
v 462 20
v 463 26
v 464 30
v 465 29
v 466 18
v 467 5
v 468 27
v 469 19
v 470 3
v 471 18
v 472 19
v 473 1
v 474 14
v 475 17
v 476 11
v 477 25
v 478 16
v 479 17
v 480 12
v 481 23
v 482 26
v 483 20
v 484 30
v 485 30
v 486 5
v 487 19
v 488 11
v 489 17
v 490 25
v 491 23
v 492 17
v 493 24
v 494 26
v 495 1
v 496 0
v 497 4
v 498 17
v 499 2
v 500 27
v 501 18
v 502 6
v 503 12
v 504 25
v 505 20
v 506 24
v 507 8
v 508 11
v 509 16
v 510 21
v 511 12
v 512 11
v 513 1
v 514 29
v 515 1
v 516 3
v 517 21
v 518 23
v 519 5
v 520 20
v 521 2
v 522 2
v 523 12
v 524 10
v 525 20
v 526 6
v 527 16
v 528 14
v 529 29
v 530 13
v 531 2
v 532 13
v 533 29
v 534 17
v 535 15
v 536 0
v 537 23
v 538 5
v 539 11
v 540 12
v 541 26
v 542 1
v 543 10
v 544 30
v 545 6
v 546 26
v 547 2
v 548 25
v 549 9
v 550 1
v 551 6
v 552 21
v 553 12
v 554 16
v 555 15
v 556 22
v 557 26
v 558 22
v 559 23
v 560 11
v 561 20
v 562 1
v 563 8
v 564 2
v 565 17
v 566 7
v 567 2
v 568 21
v 569 9
v 570 7
v 571 13
v 572 26
v 573 27
v 574 27
v 575 22
v 576 19
v 577 26
v 578 12
v 579 1
v 580 13
v 581 14
v 582 15
v 583 5
v 584 26
v 585 19
v 586 5
v 587 16
v 588 4
v 589 18
v 590 7
v 591 27
v 592 25
v 593 28
v 594 3
v 595 6
v 596 1
v 597 10
v 598 4
v 599 27
v 600 5
v 601 20
v 602 26
v 603 29
v 604 16
v 605 23
v 606 13
v 607 4
v 608 19
v 609 20
v 610 4
v 611 27
v 612 29
v 613 24
v 614 5
v 615 5
v 616 24
v 617 16
v 618 1
v 619 13
v 620 15
v 621 14
v 622 16
v 623 9
v 624 26
v 625 23
v 626 5
v 627 7
v 628 12
v 629 3
v 630 3
v 631 15
v 632 0
v 633 7
v 634 11
v 635 29
v 636 25
v 637 25
v 638 28
v 639 1
v 640 21
v 641 23
v 642 30
v 643 9
v 644 17
v 645 21
v 646 27
v 647 16
v 648 28
v 649 20
v 650 30
v 651 8
v 652 29
v 653 0
v 654 22
v 655 11
v 656 9
v 657 2
v 658 20
v 659 17
v 660 16
v 661 26
v 662 0
v 663 15
v 664 5
v 665 22
v 666 27
v 667 11
v 668 10
v 669 7
v 670 15
v 671 13
v 672 14
v 673 8
v 674 10
v 675 29
v 676 22
v 677 25
v 678 19
v 679 18
v 680 10
v 681 30
v 682 15
v 683 6
v 684 9
v 685 12
v 686 23
v 687 26
v 688 26
v 689 27
v 690 11
v 691 17
v 692 20
v 693 10
v 694 13
v 695 16
v 696 19
v 697 2
v 698 11
v 699 11
v 700 10
v 701 15
v 702 13
v 703 20
v 704 27
v 705 21
v 706 14
v 707 6
v 708 19
v 709 12
v 710 21
v 711 5
v 712 1
v 713 15
v 714 30
v 715 10
v 716 9
v 717 19
v 718 8
v 719 7
v 720 12
v 721 18
v 722 9
v 723 27
v 724 26
v 725 6
v 726 21
v 727 12
v 728 9
v 729 22
v 730 4
v 731 8
v 732 27
v 733 4
v 734 24
v 735 0
v 736 9
v 737 21
v 738 4
v 739 3
v 740 18
v 741 25
v 742 21
v 743 10
